
Gurobi 11.0.0 (linux64) logging started Tue Sep 17 04:10:16 2024

Set parameter LogFile to value "gurobi.log"
Set parameter InfUnbdInfo to value 1
Gurobi Optimizer version 11.0.0 build v11.0.0rc2 (linux64 - "Ubuntu 22.04.4 LTS")

CPU model: AMD EPYC 7V13 64-Core Processor, instruction set [SSE2|AVX|AVX2]
Thread count: 128 physical cores, 128 logical processors, using up to 32 threads

Optimize a model with 33 rows, 419 columns and 106 nonzeros
Model fingerprint: 0x8930bc85
Model has 424 quadratic constraints
Model has 1 general constraint
Variable types: 124 continuous, 295 integer (0 binary)
Coefficient statistics:
  Matrix range     [1e+00, 6e+04]
  QMatrix range    [1e+00, 6e+04]
  QLMatrix range   [1e+00, 6e+04]
  Objective range  [1e+00, 1e+00]
  Bounds range     [1e+00, 7e+11]
  RHS range        [1e+00, 7e+03]
  QRHS range       [1e+00, 2e+06]
Warning: Model contains large bounds
         Consider reformulating model or setting NumericFocus parameter
         to avoid numerical issues.
Using branch priorities (all 0).
Presolve added 15 rows and 0 columns
Presolve removed 0 rows and 47 columns
Presolve time: 0.01s
Presolved: 1442 rows, 573 columns, 3727 nonzeros
Presolved model has 26 SOS constraint(s)
Presolved model has 259 bilinear constraint(s)
Warning: Model contains variables with very large bounds participating
         in product terms.
         Presolve was not able to compute smaller bounds for these variables.
         Consider bounding these variables or reformulating the model.


Solving non-convex MIQCP

Variable types: 180 continuous, 393 integer (151 binary)

Root relaxation: objective 7.296886e+03, 198 iterations, 0.00 seconds (0.00 work units)

    Nodes    |    Current Node    |     Objective Bounds      |     Work
 Expl Unexpl |  Obj  Depth IntInf | Incumbent    BestBd   Gap | It/Node Time

     0     0 7296.88557    0   87          - 7296.88557      -     -    0s
H    0     0                    1.926811e+09 7298.04229   100%     -    0s
     0     0 7692.00001    0  103 1.9268e+09 7692.00001   100%     -    0s
H    0     0                    1.926703e+09 7692.00083   100%     -    0s
H    0     0                    1.924471e+09 7692.00083   100%     -    0s
H    0     0                    1147410.0000 7698.79070  99.3%     -    0s
H    0     0                    901410.00000 7698.79070  99.1%     -    0s
H    0     0                    859410.00000 7698.79070  99.1%     -    0s
     0     0 7698.79107    0  163 859410.000 7698.79107  99.1%     -    0s
     0     0 7702.50435    0  159 859410.000 7702.50435  99.1%     -    0s
H    0     0                    835480.00000 7702.50435  99.1%     -    0s
H    0     0                    835370.00000 7702.50435  99.1%     -    0s
H    0     0                    653010.00000 7778.16218  98.8%     -    0s
H    0     0                    139810.00000 7778.16218  94.4%     -    0s
     0     0 7864.60000    0  168 139810.000 7864.60000  94.4%     -    0s
     0     0 7864.60000    0  146 139810.000 7864.60000  94.4%     -    0s
     0     0 8311.76099    0  143 139810.000 8311.76099  94.1%     -    0s
     0     0 8675.26703    0   98 139810.000 8675.26703  93.8%     -    0s
H    0     0                    132410.00000 8675.26703  93.4%     -    0s
     0     0 9378.43753    0  130 132410.000 9378.43753  92.9%     -    0s
     0     0 9378.43753    0  117 132410.000 9378.43753  92.9%     -    0s
     0     0 9378.43753    0  101 132410.000 9378.43753  92.9%     -    0s
     0     0 12532.8784    0  113 132410.000 12532.8784  90.5%     -    0s
     0     0 13382.5526    0  109 132410.000 13382.5526  89.9%     -    0s
     0     0 15011.5455    0  108 132410.000 15011.5455  88.7%     -    0s
     0     0 15011.5455    0   57 132410.000 15011.5455  88.7%     -    0s
     0     0 15011.5455    0   89 132410.000 15011.5455  88.7%     -    0s
     0     0 15011.5455    0   85 132410.000 15011.5455  88.7%     -    0s
     0     0 15011.5455    0  129 132410.000 15011.5455  88.7%     -    0s
H    0     0                    108410.00000 15011.5455  86.2%     -    0s
     0     0 15011.5455    0   85 108410.000 15011.5455  86.2%     -    0s
     0     0 15011.5455    0  131 108410.000 15011.5455  86.2%     -    0s
     0     0 15011.5455    0  125 108410.000 15011.5455  86.2%     -    0s
     0     0 15011.5455    0   93 108410.000 15011.5455  86.2%     -    0s
H    0     0                    108360.00000 15011.5455  86.1%     -    0s
H    0     0                    92220.000000 15011.5455  83.7%     -    0s
H    0     0                    92010.000000 15011.5455  83.7%     -    0s
     0     0 15011.5455    0  102 92010.0000 15011.5455  83.7%     -    0s
     0     0 15011.5455    0   94 92010.0000 15011.5455  83.7%     -    1s
     0     0 15011.5455    0   85 92010.0000 15011.5455  83.7%     -    1s
H    0     0                    91960.000000 15011.5455  83.7%     -    1s
     0     0 15011.5455    0   98 91960.0000 15011.5455  83.7%     -    1s
     0     0 15011.5455    0   97 91960.0000 15011.5455  83.7%     -    1s
     0     0 15011.5455    0   94 91960.0000 15011.5455  83.7%     -    1s
     0     0 15011.5455    0   72 91960.0000 15011.5455  83.7%     -    1s
     0     0 15011.5455    0  100 91960.0000 15011.5455  83.7%     -    1s
H    0     0                    91865.000000 15011.5455  83.7%     -    1s
     0     0 15011.5455    0  101 91865.0000 15011.5455  83.7%     -    1s
H    0     0                    82905.000000 15011.5455  81.9%     -    1s
     0     0 15011.5455    0  101 82905.0000 15011.5455  81.9%     -    1s
H    0     0                    82887.000000 15011.5455  81.9%     -    1s
H    0     0                    82875.000000 15011.5455  81.9%     -    1s
H    0     0                    82865.000000 15011.5455  81.9%     -    1s
     0     0 15011.5455    0   80 82865.0000 15011.5455  81.9%     -    1s
     0     0 15011.5455    0   88 82865.0000 15011.5455  81.9%     -    1s
     0     0 15011.5455    0  101 82865.0000 15011.5455  81.9%     -    1s
     0     0 15099.1750    0  101 82865.0000 15099.1750  81.8%     -    1s
     0     0 15378.6127    0  101 82865.0000 15378.6127  81.4%     -    1s
     0     0 15535.2386    0  101 82865.0000 15535.2386  81.3%     -    2s
H    0     0                    77410.000000 15535.2386  79.9%     -    2s
H    0     0                    62465.000000 15804.9400  74.7%     -    2s
     0     0 16362.5972    0  135 62465.0000 16362.5972  73.8%     -    2s
     0     0 16362.5972    0   78 62465.0000 16362.5972  73.8%     -    2s
     0     0 16362.5972    0   97 62465.0000 16362.5972  73.8%     -    2s
     0     0 16362.5972    0  114 62465.0000 16362.5972  73.8%     -    2s
     0     0 16362.5972    0  115 62465.0000 16362.5972  73.8%     -    2s
     0     0 16362.5972    0  116 62465.0000 16362.5972  73.8%     -    2s
     0     0 16362.5972    0   97 62465.0000 16362.5972  73.8%     -    2s
     0     0 16362.5972    0   92 62465.0000 16362.5972  73.8%     -    2s
     0     0 16362.5972    0   83 62465.0000 16362.5972  73.8%     -    2s
     0     0 16362.5972    0   83 62465.0000 16362.5972  73.8%     -    2s
     0     0 16362.5972    0   72 62465.0000 16362.5972  73.8%     -    3s
     0     0 16362.5972    0   98 62465.0000 16362.5972  73.8%     -    3s
     0     0 16362.5972    0  102 62465.0000 16362.5972  73.8%     -    3s
     0     0 16362.5972    0   95 62465.0000 16362.5972  73.8%     -    3s
H    0     0                    60560.000000 16362.5972  73.0%     -    3s
     0     0 16362.5972    0   94 60560.0000 16362.5972  73.0%     -    3s
H    0     0                    60280.000000 16362.5972  72.9%     -    3s
     0     0 16362.5972    0   92 60280.0000 16362.5972  72.9%     -    3s
     0     0 16362.5972    0   89 60280.0000 16362.5972  72.9%     -    3s
H    0     0                    60180.000000 16362.5972  72.8%     -    3s
     0     0 16362.5972    0   89 60180.0000 16362.5972  72.8%     -    3s
     0     0 16362.5972    0   91 60180.0000 16362.5972  72.8%     -    3s
H    0     0                    60170.000000 16362.5972  72.8%     -    3s
H    0     0                    54430.000000 16362.5972  69.9%     -    3s
H    0     0                    54075.000000 16362.5972  69.7%     -    3s
     0     0 16362.5972    0   51 54075.0000 16362.5972  69.7%     -    3s
H    0     0                    54015.000000 16362.5972  69.7%     -    3s
     0     2 16362.5972    0   51 54015.0000 16362.5972  69.7%     -    3s

Cutting planes:
  Learned: 1
  Implied bound: 34
  MIR: 19
  StrongCG: 1
  Flow cover: 1
  RLT: 18
  Relax-and-lift: 2

Explored 206 nodes (3919 simplex iterations) in 3.76 seconds (0.37 work units)
Thread count was 32 (of 128 available processors)

Solution count 10: 54015 54075 54430 ... 82865

Optimal solution found (tolerance 1.00e-10)
Best objective 5.401500000000e+04, best bound 5.401500000000e+04, gap 0.0000%
